NAME: kroC100
COMMENT: Local search tour for kroC100 (23631.933576704963)
TYPE: TOUR
DIMENSION: 100
TOUR_SECTION: 1 85 15 13 79 64 20 42 55 67 31 47 6 54 75 22 8 17 25 90 34 58 98 88 28 39 38 71 56 43 5 86 72 83 62 50 95 94 91 76 70 23 21 89 30 68 35 2 77 80 65 27 40 4 60 41 59 73 3 69 74 57 36 100 33 45 81 97 96 87 52 11 84 48 51 16 63 44 66 19 92 10 99 14 93 49 18 29 37 61 26 9 78 82 7 32 24 46 12 53 -1
EOF